2270 2176 1 2 3 4 5 6 9 10 12 13 14 16 18 20 25 26 30 31 32 33 34 35 36 37 38 39 40 41 42 44 45 46 47 49 50 51 52 54 55 58 59 60 61 63 64 66 67 68 70 71 72 74 75 76 77 78 79 80 81 82 83 84 85 86 87 88 90 91 92 93 94 95 96 97 98 99 100 